(declare-const |K:42:43| Int)
(declare-const |phi_tmp___1:20| Int)
(declare-const havoc Int)
(declare-const |phi_x:45| Int)
(declare-const |x':38:44| Int)
(declare-const |phi_tmp___1:13:16:18| Int)
(declare-const |phi_tmp___1:17:19| Int)
(declare-const |havoc:2| Int)
(assert (and (or (and (<= |havoc:2| 0) (= (+ (- |phi_x:45|) havoc) 0))
                   (and (< (- |havoc:2|) 0)
                          (or (not (<= (- |K:42:43|) 0))
                                (= (+ |x':38:44| (- havoc)
                                        (- (* |K:42:43| |havoc:2|))) 0))
                          (or (not (<= (- |K:42:43|) 0))
                                (<= (+ (- |x':38:44|) |K:42:43| havoc) 0))
                          (or (and (= |K:42:43| 0)
                                     (= (+ (- |x':38:44|) havoc) 0))
                                (and (<= (+ (- |K:42:43|) 1) 0)
                                       (<= (+ havoc -99) 0)
                                       (<= (+ (- |havoc:2|) 1) 0)
                                       (<= (+ |x':38:44| (- |havoc:2|) -99) 0)
                                       (<= (+ (- |havoc:2|) 1) 0)))
                          (<= (- |K:42:43|) 0) (< (- |havoc:2|) 0)
                          (<= (+ (- |x':38:44|) 100) 0)
                          (= (+ |x':38:44| (- |phi_x:45|)) 0)))
               (or (and (< (- |havoc:2|) 0)
                          (or (and (< |havoc:2| 0)
                                     (or (and (< (+ |phi_x:45| -100) 0)
                                                (= (- |phi_tmp___1:13:16:18|) 0))
                                           (and (<= (+ (- |phi_x:45|) 100) 0)
                                                  (= (+ (- |phi_tmp___1:13:16:18|)
                                                          1) 0)))
                                     (= (+ (- |phi_tmp___1:17:19|)
                                             |phi_tmp___1:13:16:18|) 0))
                                (and (<= (- |havoc:2|) 0)
                                       (= (- |phi_tmp___1:17:19|) 0)))
                          (= (+ (- |phi_tmp___1:20|) |phi_tmp___1:17:19|) 0))
                     (and (<= |havoc:2| 0) (= (+ (- |phi_tmp___1:20|) 1) 0)))
               (= |phi_tmp___1:20| 0)))
(check-sat)
